c "376896.clq"
p edge 138 536
e 1 5
e 1 6
e 1 9
e 1 21
e 1 90
e 2 5
e 2 6
e 2 8
e 2 11
e 2 17
e 2 18
e 2 27
e 2 32
e 2 44
e 2 45
e 2 53
e 2 56
e 2 72
e 2 76
e 2 77
e 2 79
e 2 99
e 2 107
e 2 108
e 2 118
e 2 121
e 3 5
e 3 6
e 3 7
e 3 8
e 3 9
e 3 15
e 3 16
e 3 26
e 3 29
e 3 35
e 3 36
e 3 41
e 3 51
e 3 60
e 3 65
e 3 69
e 3 72
e 3 82
e 3 121
e 3 123
e 3 126
e 3 131
e 3 134
e 4 5
e 4 7
e 4 11
e 4 12
e 4 14
e 4 21
e 4 22
e 4 31
e 4 32
e 4 42
e 4 43
e 4 62
e 4 65
e 4 71
e 4 93
e 4 130
e 5 6
e 5 7
e 5 8
e 5 10
e 5 12
e 5 13
e 5 14
e 5 17
e 5 20
e 5 21
e 5 22
e 5 23
e 5 24
e 5 28
e 5 29
e 5 30
e 5 31
e 5 34
e 5 35
e 5 36
e 5 37
e 5 42
e 5 48
e 5 53
e 5 54
e 5 63
e 5 68
e 5 71
e 5 82
e 5 85
e 5 89
e 5 93
e 5 100
e 5 101
e 5 104
e 5 117
e 5 125
e 5 126
e 6 7
e 6 8
e 6 9
e 6 10
e 6 13
e 6 15
e 6 16
e 6 26
e 6 52
e 6 57
e 6 58
e 6 63
e 6 74
e 6 76
e 6 77
e 6 80
e 6 87
e 6 94
e 6 96
e 6 115
e 6 116
e 6 131
e 7 10
e 7 11
e 7 12
e 7 14
e 7 17
e 7 24
e 7 29
e 7 33
e 7 34
e 7 41
e 7 50
e 7 52
e 7 59
e 7 62
e 7 67
e 7 68
e 7 75
e 7 97
e 7 101
e 7 113
e 7 132
e 8 9
e 8 10
e 8 11
e 8 12
e 8 17
e 8 18
e 8 19
e 8 22
e 8 24
e 8 25
e 8 28
e 8 31
e 8 38
e 8 39
e 8 41
e 8 44
e 8 45
e 8 47
e 8 48
e 8 52
e 8 59
e 8 66
e 8 69
e 8 71
e 8 78
e 8 79
e 8 100
e 8 101
e 8 114
e 8 129
e 8 137
e 9 13
e 9 14
e 9 15
e 9 16
e 9 25
e 9 33
e 9 34
e 9 36
e 9 37
e 9 39
e 9 53
e 9 60
e 9 104
e 9 122
e 10 13
e 10 15
e 10 20
e 10 22
e 10 23
e 10 26
e 10 40
e 10 43
e 10 46
e 10 47
e 10 57
e 10 66
e 10 70
e 10 76
e 10 92
e 10 109
e 10 114
e 10 117
e 10 120
e 10 123
e 10 127
e 10 128
e 10 137
e 11 16
e 11 20
e 11 27
e 11 32
e 11 42
e 11 51
e 11 52
e 11 59
e 11 61
e 11 70
e 11 85
e 11 103
e 11 121
e 11 122
e 12 19
e 12 20
e 12 21
e 12 25
e 12 27
e 12 31
e 12 32
e 12 33
e 12 34
e 12 37
e 12 38
e 12 40
e 12 47
e 12 55
e 12 68
e 12 73
e 12 79
e 12 81
e 12 86
e 12 87
e 12 104
e 12 106
e 12 118
e 12 127
e 13 35
e 13 56
e 13 64
e 13 97
e 13 104
e 13 106
e 13 112
e 14 18
e 14 19
e 14 28
e 14 41
e 14 49
e 14 58
e 14 74
e 14 84
e 14 105
e 14 120
e 14 133
e 15 23
e 15 28
e 15 35
e 15 107
e 15 123
e 15 125
e 16 18
e 16 19
e 16 30
e 16 44
e 16 57
e 16 61
e 16 87
e 16 92
e 16 111
e 16 136
e 17 30
e 17 60
e 17 103
e 18 25
e 18 33
e 18 38
e 18 53
e 18 70
e 18 71
e 18 75
e 18 78
e 18 80
e 18 82
e 18 100
e 18 124
e 18 135
e 19 40
e 19 49
e 19 50
e 19 86
e 19 95
e 19 108
e 19 128
e 20 26
e 20 29
e 20 36
e 20 72
e 20 80
e 20 81
e 20 83
e 20 102
e 20 130
e 20 131
e 21 23
e 21 37
e 21 49
e 21 59
e 21 84
e 22 24
e 22 30
e 22 39
e 22 43
e 22 62
e 22 67
e 22 86
e 22 136
e 23 51
e 23 65
e 23 86
e 24 39
e 24 56
e 24 73
e 24 88
e 24 92
e 24 93
e 25 27
e 25 43
e 25 57
e 25 67
e 25 113
e 26 83
e 26 119
e 27 42
e 27 45
e 27 46
e 27 54
e 27 95
e 27 98
e 27 133
e 28 76
e 30 38
e 30 44
e 30 45
e 30 49
e 30 50
e 30 80
e 30 84
e 30 110
e 30 127
e 30 136
e 31 40
e 31 47
e 31 48
e 31 85
e 32 51
e 32 69
e 32 134
e 33 58
e 33 88
e 33 90
e 33 97
e 33 134
e 35 126
e 37 54
e 37 55
e 37 66
e 37 79
e 37 98
e 38 46
e 38 101
e 38 131
e 39 91
e 40 74
e 40 82
e 40 99
e 40 126
e 41 46
e 41 61
e 41 64
e 41 69
e 41 88
e 41 91
e 42 112
e 43 70
e 43 94
e 43 106
e 44 54
e 44 72
e 44 81
e 44 85
e 44 89
e 44 90
e 44 92
e 44 94
e 44 110
e 44 115
e 44 120
e 45 78
e 45 116
e 45 132
e 46 55
e 46 87
e 46 95
e 46 119
e 47 48
e 47 50
e 47 64
e 47 98
e 47 109
e 48 103
e 49 75
e 49 125
e 50 73
e 50 106
e 50 113
e 51 55
e 51 88
e 52 64
e 52 75
e 52 105
e 52 133
e 53 58
e 53 96
e 53 112
e 54 56
e 54 60
e 54 61
e 54 62
e 54 96
e 54 116
e 54 117
e 54 120
e 54 128
e 54 132
e 55 63
e 55 77
e 55 96
e 55 115
e 56 77
e 56 135
e 57 66
e 57 83
e 57 93
e 57 133
e 58 98
e 59 63
e 59 65
e 59 74
e 59 89
e 59 128
e 60 89
e 60 125
e 61 99
e 62 107
e 62 137
e 63 68
e 63 102
e 64 73
e 64 95
e 64 112
e 64 123
e 64 138
e 65 109
e 66 67
e 66 97
e 66 114
e 66 118
e 66 129
e 67 132
e 68 78
e 68 103
e 68 111
e 68 117
e 68 138
e 70 110
e 71 81
e 71 94
e 72 83
e 73 84
e 74 111
e 75 111
e 76 108
e 76 113
e 76 136
e 78 99
e 78 124
e 78 129
e 78 137
e 79 91
e 81 102
e 81 127
e 86 91
e 87 109
e 87 119
e 88 90
e 88 138
e 89 105
e 93 100
e 93 122
e 93 135
e 94 108
e 96 118
e 98 102
e 98 110
e 98 114
e 99 124
e 100 134
e 101 105
e 104 107
e 104 121
e 104 124
e 105 116
e 105 135
e 106 119
e 106 129
e 108 115
e 113 122
e 117 138
e 118 130
e 124 130
